13
2-methylpyrazine, GFN2-xTB gas-phase minimum (fmax 0.002 eV/A)
N       1.383068245318050     -0.010076113209006      0.000000000000001
C       0.707689275418351      1.133254275506993     -0.000000000000000
C      -0.689503629180396      1.122316531244774     -0.000000000000001
N      -1.383430372717199     -0.000980654335149      0.000000000000000
C      -0.698153909318793     -1.136518042539767     -0.000000000000000
C       0.688482091009826     -1.137673292201686     -0.000000000000000
C       1.493770023180806      2.402692982877803     -0.000000000000000
H      -1.263046196204148      2.040007889732157     -0.000000000000001
H      -1.278463444412955     -2.048400289996842      0.000000000000000
H       1.264798972801046     -2.052974319068087     -0.000000000000001
H       2.555105248516586      2.172359581981254      0.000000000000000
H       1.252321866854941      2.995210690964907     -0.880910014115805
H       1.252321866854940      2.995210690964907      0.880910014115804
