10
Properties=species:S:1:pos:R:3:energies:R:1:forces:R:3:charge:R:1 energy=-368.2826947372468 free_energy=-368.2826947372468 dipole="-9.106323210760812e-16 1.8864409473904705e-16 -0.711689064406442" pbc="F F F"
O        0.00000000       0.00000000       1.40448397    -111.67945118      -0.00000000       0.00000000       0.00721033      -0.35427914
C       -0.00000000       0.00000000       0.20102998     -58.58174495       0.00000000      -0.00000000       0.00608820       0.24662204
C        0.00000000       1.26820982      -0.61625599     -59.61894063      -0.00000000      -0.00181791      -0.00090912      -0.14121235
C       -0.00000000      -1.26820982      -0.61625599     -59.61894063      -0.00000000       0.00181791      -0.00090912      -0.14121235
H        0.00000000       2.13555775       0.03823740     -13.14343087       0.00000000       0.00305444      -0.00847282       0.06659559
H       -0.00000000      -2.13555775       0.03823740     -13.14343087       0.00000000      -0.00305444      -0.00847282       0.06659559
H       -0.87989366       1.29439180      -1.25512295     -13.12418890      -0.00288921       0.00508542       0.00136633       0.06422266
H        0.87989366       1.29439180      -1.25512295     -13.12418890       0.00288921       0.00508542       0.00136633       0.06422266
H        0.87989366      -1.29439180      -1.25512295     -13.12418890       0.00288921      -0.00508542       0.00136633       0.06422266
H       -0.87989366      -1.29439180      -1.25512295     -13.12418890      -0.00288921      -0.00508542       0.00136633       0.06422266
