5
Properties=species:S:1:pos:R:3:energies:R:1:forces:R:3:charge:R:1 energy=-443.084494911804 free_energy=-443.084494911804 dipole="-1.9911781145267837e-05 2.350018893099564e-16 0.25049385798611373" pbc="F F F"
C        0.00019033       0.00000000       0.03495864     -55.08421356      -0.00004051      -0.00000000       0.00343541       0.19100787
H        0.00005253      -0.00000000       1.12648609     -12.32701319       0.00034479      -0.00000000      -0.00271830       0.11574681
Cl       1.67563899      -0.00000000      -0.53339996    -125.22438411       0.00097794      -0.00000000      -0.00002060      -0.10224804
Cl      -0.83744093       1.45098937      -0.53352239    -125.22444203      -0.00064111       0.00067174      -0.00034825      -0.10225332
Cl      -0.83744093      -1.45098937      -0.53352239    -125.22444203      -0.00064111      -0.00067174      -0.00034825      -0.10225332
