10
Properties=species:S:1:pos:R:3:energies:R:1:forces:R:3:charge:R:1 energy=-446.6690496810264 free_energy=-446.6690496810264 dipole="8.161495324194103e-06 -3.3872140606476936e-06 3.118353266155476e-15" pbc="F F F"
N        1.38600466       0.00000002      -0.00000000     -80.14299725       0.00113492      -0.00000683       0.00000000      -0.19788056
C        0.69470977       1.12918347      -0.00000000     -58.26490044      -0.00058827       0.00209953      -0.00000000       0.05322717
C       -0.69470980       1.12918340       0.00000000     -58.26503074       0.00059852       0.00213046       0.00000000       0.05321524
N       -1.38600463       0.00000002       0.00000000     -80.14295182      -0.00115466      -0.00000683      -0.00000000      -0.19787744
C       -0.69470979      -1.12918342       0.00000000     -58.26500518       0.00059448      -0.00212307      -0.00000000       0.05321754
C        0.69470976      -1.12918348       0.00000000     -58.26487488      -0.00058423      -0.00209215      -0.00000000       0.05322946
H        1.27064373       2.04447918       0.00000000     -13.33082639      -0.00185806      -0.00130380      -0.00000000       0.04571675
H       -1.27064373       2.04447918       0.00000000     -13.33081436       0.00185769      -0.00130800       0.00000000       0.04571791
H       -1.27064373      -2.04447918      -0.00000000     -13.33081829       0.00185712       0.00130744       0.00000000       0.04571755
H        1.27064373      -2.04447918       0.00000000     -13.33083033      -0.00185749       0.00130324      -0.00000000       0.04571639
